language Essence 1.3
letting nnodes be 10
letting nrings be 6
letting capacity be 5
letting demand be {{1, 3},
{1, 4},
{1, 5},
{1, 8},
{2, 3},
{2, 7},
{2, 9},
{3, 10},
{4, 6},
{4, 7},
{4, 9},
{5, 7},
{5, 10},
{6, 9},
{7, 9}}
